
ACE v2.1 

  instance
    name:PyCSP

  Loading variables...

  Loading constraints...

  domains
    types:1  values:875  sizes:[5:175]
  variables
    count:175  arrays:1  degrees:[139:4,140:72,141:99]
  constraints
    count:5993  specific:43  groups:2  arities:[4:5950,10:34,35:5,70:4]
    distribution:[Cardinality:5,ConstraintIntension:5950,LexicographicLE:38]
    intStructures:(1,shared:5949)
    wck:2.30  cpu:2.046  mem:28M949

  Building solver... 

  solver
    guaranteedAC:true
    wck:2.35  cpu:2.093  mem:37M864

  preprocessing
    revisions:(23800,useless=23800)  values:875  unsat:false
    wck:0.054  cpu:2.14  mem:37M864

    run0  dpts:0..31  effs:640  fails:7  wrgs:39  wck:0.00

  global
    effs:640  revisions:(265541,useless=265466)
    stop:FULL_EXPLORATION  wrgs:39
    wck:2.60  cpu:2.265  mem:37M864

s UNSATISFIABLE

d WRONG DECISIONS 39
d FOUND SOLUTIONS 0
d COMPLETE EXPLORATION

c real time : 2.265
